(declare-fun v2 () (_ BitVec 2))
(declare-fun v7 () (_ BitVec 5))
(declare-fun v15 ()Bool         )
(assert
(let (($e1 false    ))
(let (($e3 false    ))
(let (($e8 (_ bv86 7)))
(let (($e9 (_ bv0 5)))
(let (($e102               v15       ))
(let (($e104              $e102 ))
(let (($e297 (concat $e1 v7)))
(let (($e298         $e297    ))
(let (($e300                    $e3     ))
(let (($e301 (concat $e300 $e298)))
(let (($e302 (bvand        $e8         $e301 )))
(let (($e456 (concat $e9 v2)))
(let (($e457 (bvand $e456 $e302)))
(let (($e676                  $e104 ))
(let (($e677             $e676          ))
(let (($e678            $e677 ))
             (ite        $e678  $e457 $e302)
                                                                                                                                                                                                                                                                                                                                                                                                                                                                                                                                                                                                                                                                                                                                                                                                                                                                                                                                                                                                                                                                                                                                                                                                                                                                                                                                                                                                                                                                                                                                                                                                                                                                                                                                                                                                                                                                                                                                                                                                                                                                                                                                                                                                                                                                                                                                                                                                                                                                                                                                                                                                                                                                                                                                                                                                                                                                                                                                                                                                                                                                                                                                                                                                                                                                                                                                                                                                                                                                                                                                                                                                                                                                    )))                                                                                                                                                                                                                          ))                                                                                                                                                         ))) ))                                                                                                                                                                                                ) )                                                                ))    ) ))
